690
1 0 5 624 1 641 1 640 1 639 1 638 1
2 0 5 194 1 521 1 193 1 155 1 222 1
3 0 5 328 1 517 1 210 1 73 1 508 1
4 0 5 514 1 35 1 148 1 567 1 477 1
5 0 5 38 1 81 1 27 1 20 1 549 1
6 0 5 316 1 347 1 53 1 358 1 467 1
7 0 5 66 1 463 1 206 1 464 1 11 1
8 0 5 202 1 253 1 137 1 235 1 533 1
9 0 5 214 1 274 1 72 1 233 1 496 1
10 0 5 227 1 306 1 301 1 233 1 454 1
11 0 5 60 1 569 1 463 1 564 1 7 1
12 0 5 150 1 321 1 464 1 206 1 7 1
13 0 5 223 1 205 1 441 1 53 1 586 1
14 0 5 290 1 492 1 497 1 330 1 251 1
15 0 5 516 1 48 1 549 1 78 1 388 1
16 0 5 40 1 526 1 397 1 89 1 561 1
17 0 5 234 1 315 1 211 1 105 1 189 1
18 0 5 389 1 110 1 321 1 591 1 464 1
19 0 5 369 1 94 1 391 1 459 1 120 1
20 0 5 294 1 549 1 5 1 547 1 275 1
21 0 5 411 1 203 1 484 1 178 1 380 1
22 0 5 474 1 445 1 381 1 370 1 393 1
23 0 5 220 1 471 1 376 1 212 1 380 1
24 0 5 426 1 344 1 416 1 37 1 293 1
25 0 5 406 1 32 1 374 1 199 1 183 1
26 0 5 503 1 125 1 232 1 360 1 402 1
27 0 5 38 1 394 1 5 1 303 1 54 1
28 0 5 452 1 88 1 128 1 468 1 577 1
29 0 5 209 1 249 1 181 1 54 1 179 1
30 0 5 283 1 73 1 261 1 92 1 293 1
31 0 5 37 1 434 1 416 1 517 1 73 1
32 0 5 406 1 590 1 199 1 25 1 79 1
33 0 5 228 1 127 1 458 1 421 1 401 1
34 0 5 359 1 133 1 141 1 522 1 418 1
35 0 5 562 1 4 1 514 1 150 1 477 1
36 0 5 215 1 469 1 433 1 69 1 335 1
37 0 5 31 1 416 1 344 1 434 1 24 1
38 0 5 5 1 27 1 71 1 81 1 303 1
39 0 5 289 1 447 1 378 1 442 1 467 1
40 0 5 16 1 174 1 397 1 89 1 526 1
41 0 5 487 1 361 1 498 1 547 1 117 1
42 0 5 240 1 284 1 419 1 538 1 465 1
43 0 5 368 1 244 1 186 1 296 1 440 1
44 0 5 200 1 45 1 109 1 550 1 167 1
45 0 5 109 1 44 1 532 1 550 1 167 1
46 0 5 515 1 77 1 55 1 499 1 598 1
47 0 5 81 1 159 1 351 1 172 1 5 1
48 0 5 549 1 15 1 117 1 516 1 498 1
49 0 5 65 1 579 1 64 1 187 1 370 1
50 0 5 585 1 412 1 593 1 377 1 589 1
51 0 5 188 1 363 1 570 1 493 1 418 1
52 0 5 129 1 141 1 135 1 529 1 281 1
53 0 5 347 1 441 1 358 1 223 1 6 1
54 0 5 394 1 384 1 179 1 27 1 209 1
55 0 5 515 1 598 1 46 1 309 1 402 1
56 0 5 462 1 503 1 486 1 337 1 62 1
57 0 5 453 1 318 1 162 1 218 1 367 1
58 0 5 302 1 466 1 239 1 423 1 533 1
59 0 5 488 1 238 1 158 1 173 1 440 1
60 0 5 11 1 486 1 463 1 503 1 460 1
61 0 5 582 1 142 1 414 1 528 1 68 1
62 0 5 166 1 110 1 337 1 427 1 460 1
63 0 5 367 1 85 1 429 1 339 1 455 1
64 0 5 393 1 49 1 65 1 540 1 381 1
65 0 5 393 1 370 1 49 1 64 1 381 1
66 0 5 552 1 7 1 153 1 564 1 11 1
67 0 5 357 1 185 1 536 1 583 1 395 1
68 0 5 305 1 266 1 570 1 61 1 519 1
69 0 5 491 1 469 1 36 1 489 1 154 1
70 0 5 442 1 545 1 138 1 289 1 447 1
71 0 5 262 1 573 1 38 1 303 1 579 1
72 0 5 246 1 481 1 9 1 448 1 333 1
73 0 5 210 1 30 1 517 1 434 1 3 1
74 0 5 344 1 102 1 534 1 192 1 37 1
75 0 5 380 1 371 1 435 1 376 1 461 1
76 0 5 428 1 459 1 578 1 82 1 94 1
77 0 5 515 1 356 1 46 1 307 1 373 1
78 0 5 530 1 365 1 516 1 15 1 349 1
79 0 5 506 1 590 1 199 1 406 1 32 1
80 0 5 152 1 273 1 317 1 403 1 477 1
81 0 5 47 1 5 1 38 1 351 1 549 1
82 0 5 502 1 165 1 551 1 459 1 76 1
83 0 5 400 1 483 1 263 1 461 1 435 1
84 0 5 133 1 522 1 570 1 34 1 305 1
85 0 5 177 1 63 1 240 1 538 1 367 1
86 0 5 537 1 224 1 300 1 420 1 356 1
87 0 5 239 1 288 1 236 1 423 1 137 1
88 0 5 128 1 28 1 577 1 452 1 566 1
89 0 5 480 1 116 1 40 1 16 1 295 1
90 0 5 478 1 169 1 408 1 338 1 114 1
91 0 5 591 1 392 1 389 1 165 1 18 1
92 0 5 261 1 385 1 30 1 135 1 587 1
93 0 5 131 1 512 1 574 1 375 1 163 1
94 0 5 19 1 208 1 120 1 556 1 428 1
95 0 5 345 1 584 1 161 1 308 1 583 1
96 0 5 272 1 476 1 178 1 563 1 101 1
97 0 5 520 1 205 1 320 1 531 1 140 1
98 0 5 487 1 524 1 341 1 350 1 170 1
99 0 5 413 1 529 1 339 1 52 1 465 1
100 0 5 323 1 267 1 292 1 596 1 390 1
101 0 5 563 1 96 1 334 1 622 1 632 1
102 0 5 192 1 74 1 302 1 344 1 534 1
103 0 5 571 1 336 1 291 1 366 1 546 1
104 0 5 482 1 283 1 587 1 490 1 424 1
105 0 5 315 1 235 1 211 1 548 1 8 1
106 0 5 387 1 194 1 222 1 355 1 145 1
107 0 5 412 1 207 1 158 1 440 1 422 1
108 0 5 431 1 333 1 226 1 481 1 122 1
109 0 5 45 1 532 1 167 1 44 1 550 1
110 0 5 18 1 62 1 427 1 591 1 166 1
111 0 5 363 1 418 1 34 1 570 1 359 1
112 0 5 246 1 282 1 481 1 458 1 496 1
113 0 5 397 1 456 1 122 1 174 1 526 1
114 0 5 478 1 198 1 473 1 408 1 169 1
115 0 5 432 1 195 1 439 1 264 1 468 1
116 0 5 506 1 295 1 89 1 79 1 588 1
117 0 5 294 1 498 1 549 1 48 1 547 1
118 0 5 216 1 225 1 535 1 585 1 186 1
119 0 5 319 1 138 1 595 1 395 1 536 1
120 0 5 369 1 94 1 256 1 208 1 19 1
121 0 5 183 1 374 1 590 1 366 1 79 1
122 0 5 431 1 526 1 333 1 113 1 561 1
123 0 5 348 1 241 1 285 1 436 1 288 1
124 0 5 290 1 518 1 14 1 251 1 327 1
125 0 5 171 1 26 1 503 1 60 1 232 1
126 0 5 387 1 127 1 421 1 458 1 228 1
127 0 5 282 1 33 1 126 1 228 1 421 1
128 0 5 88 1 468 1 28 1 577 1 452 1
129 0 5 281 1 52 1 141 1 135 1 424 1
130 0 5 577 1 566 1 296 1 269 1 43 1
131 0 5 93 1 163 1 512 1 375 1 216 1
132 0 5 219 1 505 1 310 1 212 1 560 1
133 0 5 84 1 34 1 522 1 570 1 359 1
134 0 5 358 1 586 1 53 1 223 1 507 1
135 0 5 529 1 385 1 52 1 281 1 92 1
136 0 5 456 1 291 1 571 1 103 1 306 1
137 0 5 312 1 236 1 285 1 8 1 253 1
138 0 5 119 1 595 1 442 1 395 1 70 1
139 0 5 627 1 635 1 634 1 633 1 631 1
140 0 5 320 1 381 1 520 1 64 1 540 1
141 0 5 52 1 522 1 129 1 359 1 34 1
142 0 5 528 1 61 1 519 1 582 1 48 1
143 0 5 352 1 565 1 497 1 278 1 327 1
144 0 5 473 1 286 1 184 1 198 1 114 1
145 0 5 355 1 222 1 106 1 430 1 421 1
146 0 5 403 1 477 1 298 1 491 1 154 1
147 0 5 563 1 242 1 322 1 518 1 554 1
148 0 5 256 1 514 1 4 1 567 1 273 1
149 0 5 278 1 525 1 499 1 329 1 309 1
150 0 5 410 1 12 1 206 1 35 1 500 1
151 0 5 204 1 399 1 540 1 64 1 187 1
152 0 5 317 1 80 1 180 1 403 1 477 1
153 0 5 500 1 206 1 433 1 66 1 335 1
154 0 5 279 1 156 1 69 1 146 1 377 1
155 0 5 430 1 354 1 401 1 375 1 194 1
156 0 5 299 1 154 1 279 1 396 1 377 1
157 0 5 627 1 635 1 634 1 633 1 631 1
158 0 5 440 1 107 1 238 1 59 1 412 1
159 0 5 172 1 326 1 47 1 530 1 78 1
160 0 5 550 1 233 1 214 1 167 1 200 1
161 0 5 584 1 308 1 95 1 425 1 345 1
162 0 5 407 1 453 1 429 1 455 1 57 1
163 0 5 131 1 470 1 354 1 375 1 93 1
164 0 5 592 1 433 1 527 1 489 1 559 1
165 0 5 427 1 82 1 551 1 392 1 578 1
166 0 5 337 1 62 1 110 1 460 1 462 1
167 0 5 510 1 532 1 550 1 109 1 45 1
168 0 5 524 1 343 1 341 1 419 1 284 1
169 0 5 530 1 90 1 438 1 326 1 114 1
170 0 5 277 1 379 1 278 1 525 1 417 1
171 0 5 125 1 232 1 230 1 362 1 26 1
172 0 5 326 1 159 1 47 1 351 1 473 1
173 0 5 488 1 317 1 59 1 396 1 403 1
174 0 5 397 1 40 1 366 1 113 1 590 1
175 0 5 325 1 378 1 545 1 467 1 139 1
176 0 5 322 1 563 1 101 1 96 1 334 1
177 0 5 85 1 538 1 367 1 240 1 63 1
178 0 5 555 1 272 1 276 1 476 1 21 1
179 0 5 54 1 275 1 394 1 384 1 190 1
180 0 5 273 1 256 1 152 1 148 1 80 1
181 0 5 364 1 270 1 29 1 249 1 596 1
182 0 5 597 1 544 1 313 1 285 1 331 1
183 0 5 121 1 374 1 199 1 25 1 590 1
184 0 5 351 1 286 1 473 1 144 1 198 1
185 0 5 395 1 67 1 536 1 442 1 289 1
186 0 5 216 1 368 1 539 1 43 1 439 1
187 0 5 204 1 49 1 64 1 393 1 553 1
188 0 5 257 1 51 1 570 1 363 1 493 1
189 0 5 287 1 229 1 407 1 328 1 17 1
190 0 5 543 1 209 1 384 1 507 1 179 1
191 0 5 349 1 438 1 485 1 365 1 519 1
192 0 5 102 1 534 1 466 1 74 1 235 1
193 0 5 521 1 430 1 2 1 355 1 354 1
194 0 5 2 1 106 1 355 1 155 1 222 1
195 0 5 115 1 557 1 521 1 231 1 439 1
196 0 5 523 1 372 1 250 1 437 1 479 1
197 0 5 362 1 243 1 494 1 217 1 297 1
198 0 5 386 1 114 1 475 1 286 1 184 1
199 0 5 590 1 183 1 32 1 25 1 79 1
200 0 5 44 1 233 1 479 1 550 1 45 1
201 0 5 237 1 502 1 597 1 391 1 409 1
202 0 5 8 1 533 1 423 1 137 1 235 1
203 0 5 411 1 220 1 21 1 276 1 380 1
204 0 5 151 1 187 1 553 1 64 1 399 1
205 0 5 441 1 13 1 97 1 223 1 531 1
206 0 5 153 1 7 1 12 1 500 1 150 1
207 0 5 422 1 107 1 412 1 50 1 158 1
208 0 5 556 1 94 1 567 1 120 1 256 1
209 0 5 29 1 190 1 543 1 249 1 54 1
210 0 5 73 1 511 1 508 1 328 1 3 1
211 0 5 548 1 234 1 105 1 315 1 17 1
212 0 5 346 1 437 1 23 1 435 1 219 1
213 0 5 576 1 475 1 581 1 342 1 268 1
214 0 5 9 1 306 1 233 1 291 1 456 1
215 0 5 559 1 36 1 371 1 400 1 263 1
216 0 5 118 1 186 1 585 1 535 1 225 1
217 0 5 572 1 569 1 382 1 297 1 280 1
218 0 5 373 1 367 1 307 1 57 1 356 1
219 0 5 132 1 560 1 212 1 346 1 505 1
220 0 5 411 1 23 1 203 1 276 1 380 1
221 0 5 404 1 510 1 437 1 532 1 212 1
222 0 5 145 1 106 1 430 1 155 1 355 1
223 0 5 13 1 586 1 531 1 53 1 205 1
224 0 5 537 1 420 1 86 1 337 1 402 1
225 0 5 118 1 535 1 593 1 483 1 216 1
226 0 5 480 1 561 1 108 1 431 1 122 1
227 0 5 10 1 454 1 546 1 301 1 306 1
228 0 5 33 1 421 1 401 1 458 1 127 1
229 0 5 407 1 508 1 455 1 287 1 189 1
230 0 5 232 1 362 1 330 1 558 1 494 1
231 0 5 539 1 557 1 195 1 439 1 470 1
232 0 5 171 1 230 1 362 1 26 1 494 1
233 0 5 160 1 9 1 200 1 550 1 306 1
234 0 5 17 1 211 1 315 1 235 1 548 1
235 0 5 534 1 548 1 105 1 423 1 234 1
236 0 5 87 1 288 1 137 1 348 1 285 1
237 0 5 201 1 409 1 241 1 436 1 311 1
238 0 5 269 1 59 1 440 1 158 1 488 1
239 0 5 87 1 58 1 423 1 533 1 236 1
240 0 5 538 1 42 1 85 1 465 1 177 1
241 0 5 436 1 123 1 285 1 237 1 409 1
242 0 5 243 1 147 1 280 1 451 1 297 1
243 0 5 494 1 197 1 242 1 297 1 290 1
244 0 5 296 1 43 1 439 1 368 1 264 1
245 0 5 252 1 475 1 399 1 576 1 540 1
246 0 5 112 1 72 1 496 1 9 1 481 1
247 0 5 255 1 265 1 313 1 551 1 427 1
248 0 5 531 1 474 1 445 1 573 1 541 1
249 0 5 29 1 275 1 398 1 181 1 209 1
250 0 5 372 1 479 1 196 1 301 1 437 1
251 0 5 327 1 497 1 309 1 565 1 14 1
252 0 5 245 1 540 1 64 1 140 1 399 1
253 0 5 544 1 312 1 331 1 8 1 285 1
254 0 5 401 1 458 1 274 1 167 1 228 1
255 0 5 247 1 313 1 265 1 331 1 182 1
256 0 5 567 1 148 1 180 1 120 1 208 1
257 0 5 188 1 341 1 414 1 493 1 570 1
258 0 5 557 1 470 1 354 1 521 1 430 1
259 0 5 498 1 414 1 444 1 528 1 350 1
260 0 5 425 1 357 1 308 1 584 1 161 1
261 0 5 92 1 511 1 30 1 210 1 508 1
262 0 5 579 1 71 1 38 1 303 1 573 1
263 0 5 377 1 400 1 83 1 215 1 483 1
264 0 5 468 1 296 1 577 1 439 1 115 1
265 0 5 247 1 551 1 427 1 255 1 313 1
266 0 5 582 1 68 1 519 1 61 1 142 1
267 0 5 323 1 100 1 554 1 390 1 292 1
268 0 5 338 1 342 1 581 1 213 1 576 1
269 0 5 332 1 238 1 440 1 585 1 130 1
270 0 5 364 1 181 1 324 1 450 1 596 1
271 0 5 560 1 535 1 483 1 219 1 346 1
272 0 5 96 1 555 1 178 1 476 1 276 1
273 0 5 180 1 80 1 477 1 514 1 148 1
274 0 5 496 1 9 1 254 1 550 1 458 1
275 0 5 249 1 547 1 398 1 179 1 209 1
276 0 5 555 1 513 1 220 1 272 1 203 1
277 0 5 415 1 170 1 98 1 278 1 417 1
278 0 5 499 1 149 1 565 1 143 1 170 1
279 0 5 154 1 156 1 377 1 396 1 69 1
280 0 5 451 1 297 1 572 1 217 1 304 1
281 0 5 424 1 129 1 135 1 385 1 52 1
282 0 5 127 1 112 1 458 1 33 1 496 1
283 0 5 104 1 30 1 293 1 587 1 92 1
284 0 5 379 1 42 1 419 1 524 1 465 1
285 0 5 241 1 123 1 137 1 312 1 544 1
286 0 5 144 1 184 1 473 1 198 1 351 1
287 0 5 189 1 229 1 407 1 328 1 508 1
288 0 5 348 1 87 1 236 1 436 1 123 1
289 0 5 39 1 447 1 442 1 378 1 467 1
290 0 5 124 1 14 1 518 1 327 1 251 1
291 0 5 136 1 571 1 306 1 103 1 456 1
292 0 5 390 1 100 1 507 1 267 1 554 1
293 0 5 426 1 416 1 283 1 30 1 73 1
294 0 5 117 1 20 1 547 1 549 1 275 1
295 0 5 588 1 116 1 584 1 89 1 345 1
296 0 5 244 1 264 1 577 1 130 1 43 1
297 0 5 304 1 280 1 217 1 572 1 243 1
298 0 5 477 1 146 1 562 1 491 1 154 1
299 0 5 396 1 156 1 422 1 279 1 403 1
300 0 5 318 1 356 1 86 1 373 1 218 1
301 0 5 479 1 10 1 227 1 250 1 372 1
302 0 5 466 1 58 1 102 1 192 1 423 1
303 0 5 541 1 71 1 38 1 27 1 248 1
304 0 5 297 1 484 1 280 1 555 1 572 1
305 0 5 68 1 570 1 522 1 266 1 84 1
306 0 5 10 1 571 1 291 1 233 1 214 1
307 0 5 367 1 599 1 218 1 77 1 46 1
308 0 5 425 1 161 1 95 1 583 1 584 1
309 0 5 497 1 565 1 251 1 598 1 492 1
310 0 5 404 1 510 1 132 1 542 1 505 1
311 0 5 391 1 459 1 237 1 502 1 201 1
312 0 5 137 1 253 1 285 1 544 1 331 1
313 0 5 182 1 255 1 597 1 544 1 331 1
314 0 5 630 1 638 1 637 1 636 1 635 1
315 0 5 105 1 234 1 211 1 235 1 17 1
316 0 5 6 1 467 1 347 1 358 1 53 1
317 0 5 152 1 173 1 80 1 180 1 403 1
318 0 5 300 1 57 1 218 1 453 1 86 1
319 0 5 119 1 583 1 536 1 395 1 25 1
320 0 5 140 1 520 1 381 1 97 1 22 1
321 0 5 464 1 12 1 18 1 206 1 389 1
322 0 5 518 1 334 1 101 1 563 1 472 1
323 0 5 580 1 100 1 267 1 352 1 327 1
324 0 5 450 1 270 1 340 1 417 1 594 1
325 0 5 627 1 635 1 634 1 633 1 632 1
326 0 5 172 1 159 1 473 1 530 1 169 1
327 0 5 251 1 352 1 143 1 290 1 580 1
328 0 5 3 1 508 1 210 1 517 1 229 1
329 0 5 599 1 499 1 307 1 46 1 149 1
330 0 5 558 1 492 1 598 1 230 1 14 1
331 0 5 253 1 544 1 313 1 255 1 182 1
332 0 5 566 1 269 1 577 1 238 1 440 1
333 0 5 448 1 108 1 122 1 481 1 9 1
334 0 5 554 1 629 1 626 1 625 1 624 1
335 0 5 469 1 500 1 433 1 153 1 489 1
336 0 5 546 1 366 1 620 1 628 1 638 1
337 0 5 166 1 462 1 537 1 62 1 56 1
338 0 5 268 1 581 1 90 1 408 1 478 1
339 0 5 413 1 529 1 455 1 99 1 63 1
340 0 5 417 1 495 1 324 1 415 1 278 1
341 0 5 257 1 168 1 98 1 343 1 524 1
342 0 5 576 1 268 1 213 1 245 1 581 1
343 0 5 457 1 168 1 493 1 341 1 284 1
344 0 5 74 1 24 1 37 1 534 1 102 1
345 0 5 588 1 95 1 583 1 406 1 295 1
346 0 5 560 1 212 1 483 1 435 1 219 1
347 0 5 53 1 6 1 316 1 467 1 441 1
348 0 5 123 1 288 1 236 1 436 1 241 1
349 0 5 191 1 438 1 365 1 78 1 530 1
350 0 5 444 1 414 1 98 1 341 1 259 1
351 0 5 184 1 47 1 172 1 326 1 473 1
352 0 5 143 1 495 1 580 1 327 1 100 1
353 0 5 432 1 452 1 521 1 115 1 195 1
354 0 5 430 1 470 1 163 1 258 1 375 1
355 0 5 145 1 430 1 194 1 106 1 222 1
356 0 5 77 1 373 1 300 1 86 1 307 1
357 0 5 260 1 67 1 425 1 308 1 536 1
358 0 5 134 1 53 1 223 1 586 1 441 1
359 0 5 34 1 418 1 141 1 111 1 133 1
360 0 5 420 1 402 1 503 1 26 1 356 1
361 0 5 398 1 547 1 41 1 487 1 594 1
362 0 5 197 1 230 1 232 1 171 1 494 1
363 0 5 111 1 51 1 493 1 570 1 188 1
364 0 5 270 1 181 1 417 1 594 1 398 1
365 0 5 388 1 349 1 78 1 485 1 516 1
366 0 5 174 1 103 1 121 1 456 1 136 1
367 0 5 307 1 63 1 218 1 177 1 85 1
368 0 5 43 1 439 1 186 1 244 1 539 1
369 0 5 120 1 19 1 94 1 208 1 256 1
370 0 5 445 1 65 1 393 1 22 1 49 1
371 0 5 461 1 559 1 75 1 435 1 215 1
372 0 5 250 1 196 1 23 1 437 1 471 1
373 0 5 218 1 356 1 77 1 300 1 46 1
374 0 5 183 1 121 1 25 1 199 1 590 1
375 0 5 542 1 354 1 155 1 574 1 93 1
376 0 5 435 1 23 1 75 1 471 1 220 1
377 0 5 263 1 279 1 589 1 50 1 400 1
378 0 5 447 1 467 1 39 1 289 1 545 1
379 0 5 284 1 419 1 170 1 524 1 525 1
380 0 5 411 1 75 1 23 1 592 1 220 1
381 0 5 140 1 22 1 64 1 393 1 320 1
382 0 5 572 1 217 1 569 1 11 1 125 1
383 0 5 624 1 641 1 640 1 639 1 638 1
384 0 5 54 1 190 1 394 1 507 1 504 1
385 0 5 490 1 587 1 135 1 424 1 482 1
386 0 5 553 1 198 1 399 1 475 1 187 1
387 0 5 106 1 126 1 421 1 355 1 127 1
388 0 5 365 1 516 1 485 1 78 1 15 1
389 0 5 18 1 91 1 591 1 321 1 392 1
390 0 5 292 1 100 1 405 1 267 1 554 1
391 0 5 311 1 436 1 459 1 409 1 19 1
392 0 5 578 1 91 1 165 1 35 1 428 1
393 0 5 65 1 64 1 370 1 381 1 22 1
394 0 5 54 1 504 1 384 1 27 1 179 1
395 0 5 185 1 536 1 138 1 319 1 67 1
396 0 5 299 1 403 1 156 1 422 1 80 1
397 0 5 113 1 174 1 16 1 40 1 122 1
398 0 5 361 1 275 1 547 1 249 1 181 1
399 0 5 553 1 540 1 151 1 386 1 475 1
400 0 5 83 1 263 1 215 1 483 1 377 1
401 0 5 254 1 421 1 228 1 155 1 33 1
402 0 5 360 1 598 1 26 1 420 1 356 1
403 0 5 146 1 396 1 80 1 477 1 154 1
404 0 5 221 1 310 1 510 1 132 1 437 1
405 0 5 390 1 472 1 334 1 554 1 267 1
406 0 5 32 1 25 1 345 1 506 1 79 1
407 0 5 229 1 162 1 287 1 189 1 455 1
408 0 5 581 1 90 1 114 1 478 1 198 1
409 0 5 436 1 237 1 241 1 391 1 201 1
410 0 5 562 1 150 1 491 1 35 1 206 1
411 0 5 380 1 220 1 21 1 203 1 23 1
412 0 5 107 1 207 1 50 1 158 1 585 1
413 0 5 99 1 465 1 339 1 529 1 85 1
414 0 5 259 1 350 1 528 1 61 1 444 1
415 0 5 277 1 594 1 340 1 417 1 361 1
416 0 5 37 1 293 1 24 1 31 1 434 1
417 0 5 340 1 324 1 415 1 594 1 364 1
418 0 5 111 1 359 1 34 1 141 1 493 1
419 0 5 525 1 379 1 42 1 284 1 170 1
420 0 5 360 1 224 1 86 1 537 1 402 1
421 0 5 228 1 401 1 126 1 33 1 458 1
422 0 5 207 1 299 1 396 1 50 1 412 1
423 0 5 533 1 466 1 239 1 58 1 235 1
424 0 5 482 1 281 1 385 1 104 1 129 1
425 0 5 260 1 308 1 357 1 584 1 161 1
426 0 5 24 1 293 1 416 1 283 1 30 1
427 0 5 165 1 110 1 62 1 265 1 591 1
428 0 5 76 1 578 1 94 1 556 1 459 1
429 0 5 455 1 162 1 63 1 367 1 339 1
430 0 5 193 1 354 1 355 1 155 1 222 1
431 0 5 108 1 122 1 561 1 226 1 526 1
432 0 5 353 1 115 1 452 1 439 1 521 1
433 0 5 164 1 36 1 489 1 469 1 335 1
434 0 5 517 1 31 1 416 1 73 1 3 1
435 0 5 461 1 376 1 75 1 212 1 371 1
436 0 5 409 1 241 1 391 1 288 1 237 1
437 0 5 523 1 212 1 221 1 196 1 23 1
438 0 5 191 1 349 1 485 1 169 1 78 1
439 0 5 368 1 539 1 231 1 244 1 264 1
440 0 5 158 1 585 1 238 1 269 1 412 1
441 0 5 205 1 53 1 13 1 358 1 223 1
442 0 5 70 1 138 1 289 1 185 1 395 1
443 0 5 476 1 272 1 96 1 513 1 626 1
444 0 5 350 1 259 1 414 1 498 1 487 1
445 0 5 370 1 22 1 248 1 474 1 573 1
446 0 5 624 1 641 1 640 1 639 1 638 1
447 0 5 378 1 289 1 39 1 545 1 70 1
448 0 5 481 1 333 1 72 1 9 1 108 1
449 0 5 366 1 121 1 374 1 139 1 568 1
450 0 5 596 1 324 1 270 1 580 1 181 1
451 0 5 280 1 297 1 572 1 304 1 484 1
452 0 5 28 1 353 1 468 1 432 1 128 1
453 0 5 57 1 162 1 407 1 318 1 429 1
454 0 5 227 1 513 1 546 1 10 1 571 1
455 0 5 429 1 162 1 339 1 229 1 407 1
456 0 5 136 1 113 1 291 1 214 1 174 1
457 0 5 493 1 343 1 465 1 168 1 341 1
458 0 5 496 1 254 1 33 1 228 1 421 1
459 0 5 311 1 76 1 391 1 82 1 19 1
460 0 5 462 1 166 1 486 1 62 1 463 1
461 0 5 371 1 435 1 75 1 483 1 83 1
462 0 5 56 1 486 1 337 1 460 1 166 1
463 0 5 7 1 60 1 486 1 11 1 464 1
464 0 5 321 1 12 1 463 1 7 1 18 1
465 0 5 413 1 457 1 240 1 42 1 339 1
466 0 5 302 1 58 1 423 1 192 1 102 1
467 0 5 316 1 378 1 289 1 347 1 39 1
468 0 5 128 1 264 1 115 1 452 1 439 1
469 0 5 335 1 69 1 36 1 433 1 491 1
470 0 5 258 1 354 1 163 1 557 1 231 1
471 0 5 23 1 376 1 220 1 372 1 196 1
472 0 5 334 1 634 1 633 1 632 1 630 1
473 0 5 144 1 326 1 114 1 286 1 172 1
474 0 5 22 1 531 1 248 1 445 1 573 1
475 0 5 213 1 245 1 399 1 576 1 198 1
476 0 5 96 1 272 1 178 1 443 1 454 1
477 0 5 298 1 146 1 273 1 514 1 80 1
478 0 5 90 1 114 1 408 1 169 1 198 1
479 0 5 301 1 250 1 200 1 196 1 45 1
480 0 5 226 1 89 1 561 1 16 1 526 1
481 0 5 448 1 72 1 112 1 108 1 333 1
482 0 5 424 1 104 1 385 1 490 1 587 1
483 0 5 83 1 271 1 346 1 589 1 461 1
484 0 5 555 1 304 1 21 1 178 1 297 1
485 0 5 519 1 438 1 191 1 365 1 388 1
486 0 5 462 1 60 1 503 1 463 1 56 1
487 0 5 41 1 98 1 594 1 361 1 498 1
488 0 5 59 1 173 1 238 1 158 1 440 1
489 0 5 433 1 164 1 69 1 469 1 335 1
490 0 5 587 1 385 1 104 1 482 1 92 1
491 0 5 69 1 298 1 562 1 469 1 410 1
492 0 5 330 1 14 1 598 1 497 1 309 1
493 0 5 457 1 343 1 51 1 363 1 341 1
494 0 5 558 1 243 1 230 1 197 1 232 1
495 0 5 340 1 352 1 143 1 580 1 327 1
496 0 5 458 1 274 1 246 1 9 1 72 1
497 0 5 565 1 309 1 492 1 143 1 251 1
498 0 5 259 1 117 1 41 1 528 1 444 1
499 0 5 278 1 565 1 329 1 46 1 149 1
500 0 5 153 1 335 1 206 1 433 1 12 1
501 0 5 595 1 138 1 119 1 25 1 374 1
502 0 5 82 1 551 1 201 1 597 1 311 1
503 0 5 26 1 486 1 56 1 360 1 125 1
504 0 5 394 1 531 1 507 1 384 1 248 1
505 0 5 132 1 542 1 512 1 574 1 219 1
506 0 5 116 1 79 1 406 1 590 1 89 1
507 0 5 190 1 292 1 543 1 504 1 384 1
508 0 5 511 1 210 1 328 1 229 1 3 1
509 0 5 586 1 622 1 620 1 629 1 628 1
510 0 5 167 1 310 1 532 1 221 1 404 1
511 0 5 210 1 508 1 261 1 229 1 92 1
512 0 5 574 1 93 1 505 1 535 1 131 1
513 0 5 454 1 276 1 301 1 227 1 546 1
514 0 5 4 1 148 1 273 1 477 1 35 1
515 0 5 77 1 55 1 46 1 402 1 598 1
516 0 5 15 1 388 1 48 1 78 1 142 1
517 0 5 434 1 3 1 73 1 328 1 210 1
518 0 5 124 1 290 1 322 1 554 1 267 1
519 0 5 485 1 266 1 582 1 142 1 68 1
520 0 5 97 1 320 1 140 1 381 1 22 1
521 0 5 193 1 2 1 195 1 258 1 557 1
522 0 5 84 1 141 1 305 1 133 1 34 1
523 0 5 196 1 437 1 23 1 212 1 372 1
524 0 5 168 1 98 1 341 1 284 1 379 1
525 0 5 419 1 149 1 170 1 379 1 278 1
526 0 5 16 1 122 1 561 1 397 1 113 1
527 0 5 564 1 164 1 592 1 489 1 552 1
528 0 5 142 1 414 1 259 1 498 1 61 1
529 0 5 99 1 135 1 52 1 339 1 413 1
530 0 5 169 1 78 1 159 1 326 1 349 1
531 0 5 248 1 504 1 474 1 223 1 205 1
532 0 5 109 1 167 1 510 1 45 1 221 1
533 0 5 423 1 202 1 239 1 8 1 137 1
534 0 5 235 1 192 1 74 1 344 1 548 1
535 0 5 271 1 225 1 512 1 216 1 589 1
536 0 5 583 1 67 1 319 1 395 1 185 1
537 0 5 224 1 86 1 337 1 420 1 62 1
538 0 5 240 1 177 1 42 1 85 1 599 1
539 0 5 231 1 439 1 186 1 557 1 368 1
540 0 5 252 1 399 1 64 1 151 1 393 1
541 0 5 573 1 303 1 248 1 71 1 27 1
542 0 5 574 1 375 1 505 1 167 1 510 1
543 0 5 190 1 209 1 507 1 179 1 384 1
544 0 5 182 1 253 1 331 1 285 1 312 1
545 0 5 447 1 70 1 378 1 442 1 138 1
546 0 5 454 1 621 1 630 1 628 1 627 1
547 0 5 275 1 398 1 361 1 294 1 117 1
548 0 5 211 1 235 1 105 1 315 1 234 1
549 0 5 48 1 117 1 20 1 294 1 15 1
550 0 5 160 1 45 1 167 1 233 1 44 1
551 0 5 502 1 265 1 82 1 165 1 247 1
552 0 5 66 1 564 1 527 1 206 1 569 1
553 0 5 386 1 399 1 204 1 187 1 151 1
554 0 5 334 1 267 1 518 1 390 1 472 1
555 0 5 484 1 276 1 272 1 178 1 304 1
556 0 5 208 1 94 1 567 1 428 1 256 1
557 0 5 258 1 231 1 195 1 354 1 470 1
558 0 5 330 1 494 1 230 1 14 1 243 1
559 0 5 215 1 371 1 75 1 164 1 36 1
560 0 5 271 1 346 1 219 1 483 1 132 1
561 0 5 226 1 526 1 16 1 431 1 122 1
562 0 5 410 1 35 1 298 1 491 1 477 1
563 0 5 96 1 322 1 101 1 272 1 334 1
564 0 5 552 1 527 1 569 1 11 1 66 1
565 0 5 497 1 499 1 143 1 278 1 309 1
566 0 5 332 1 577 1 130 1 269 1 440 1
567 0 5 256 1 148 1 556 1 4 1 208 1
568 0 5 627 1 635 1 634 1 633 1 632 1
569 0 5 11 1 217 1 564 1 572 1 382 1
570 0 5 305 1 68 1 51 1 188 1 414 1
571 0 5 103 1 291 1 306 1 336 1 136 1
572 0 5 217 1 382 1 280 1 297 1 569 1
573 0 5 541 1 71 1 445 1 579 1 248 1
574 0 5 542 1 512 1 93 1 375 1 505 1
575 0 5 630 1 638 1 637 1 636 1 635 1
576 0 5 213 1 342 1 475 1 245 1 268 1
577 0 5 130 1 566 1 264 1 296 1 332 1
578 0 5 392 1 428 1 76 1 165 1 82 1
579 0 5 262 1 49 1 65 1 445 1 573 1
580 0 5 323 1 352 1 450 1 495 1 100 1
581 0 5 408 1 338 1 213 1 268 1 475 1
582 0 5 266 1 61 1 519 1 142 1 68 1
583 0 5 536 1 319 1 345 1 95 1 67 1
584 0 5 161 1 95 1 295 1 588 1 425 1
585 0 5 440 1 50 1 412 1 216 1 593 1
586 0 5 223 1 134 1 509 1 13 1 441 1
587 0 5 490 1 385 1 104 1 482 1 92 1
588 0 5 295 1 345 1 584 1 116 1 95 1
589 0 5 593 1 483 1 377 1 535 1 50 1
590 0 5 79 1 199 1 32 1 174 1 121 1
591 0 5 91 1 389 1 110 1 18 1 427 1
592 0 5 164 1 380 1 527 1 297 1 411 1
593 0 5 589 1 50 1 225 1 585 1 483 1
594 0 5 415 1 324 1 417 1 487 1 364 1
595 0 5 138 1 501 1 119 1 395 1 70 1
596 0 5 450 1 100 1 181 1 270 1 324 1
597 0 5 182 1 313 1 285 1 201 1 544 1
598 0 5 55 1 492 1 309 1 46 1 330 1
599 0 5 329 1 307 1 46 1 499 1 538 1
600 0 5 624 1 641 1 640 1 639 1 638 1
601 0 5 624 1 641 1 640 1 639 1 638 1
602 0 5 624 1 641 1 640 1 639 1 638 1
603 0 5 624 1 641 1 640 1 639 1 638 1
604 0 5 624 1 641 1 640 1 639 1 638 1
605 0 5 624 1 641 1 640 1 639 1 638 1
606 0 5 624 1 641 1 640 1 639 1 638 1
607 0 5 624 1 641 1 640 1 639 1 638 1
608 0 5 624 1 641 1 640 1 639 1 638 1
609 0 5 624 1 641 1 640 1 639 1 638 1
610 0 5 624 1 641 1 640 1 639 1 638 1
611 0 5 624 1 641 1 640 1 639 1 638 1
612 0 5 624 1 641 1 640 1 639 1 638 1
613 0 5 624 1 641 1 640 1 639 1 638 1
614 0 5 624 1 641 1 640 1 639 1 638 1
615 0 5 624 1 641 1 640 1 639 1 638 1
616 0 5 624 1 641 1 640 1 639 1 638 1
617 0 5 624 1 641 1 640 1 639 1 638 1
618 0 5 624 1 641 1 640 1 639 1 638 1
619 0 5 624 1 641 1 640 1 639 1 638 1
620 0 5 624 1 641 1 640 1 639 1 638 1
621 0 5 624 1 641 1 640 1 639 1 638 1
622 0 5 624 1 641 1 640 1 639 1 638 1
623 0 5 624 1 641 1 640 1 639 1 638 1
624 0 5 624 1 641 1 640 1 639 1 638 1
625 0 5 624 1 641 1 640 1 639 1 638 1
626 0 5 624 1 641 1 640 1 639 1 638 1
627 0 5 624 1 641 1 640 1 639 1 638 1
628 0 5 624 1 641 1 640 1 639 1 638 1
629 0 5 624 1 641 1 640 1 639 1 638 1
630 0 5 624 1 641 1 640 1 639 1 638 1
631 0 5 624 1 641 1 640 1 639 1 638 1
632 0 5 624 1 641 1 640 1 639 1 638 1
633 0 5 624 1 641 1 640 1 639 1 638 1
634 0 5 624 1 641 1 640 1 639 1 638 1
635 0 5 624 1 641 1 640 1 639 1 638 1
636 0 5 624 1 641 1 640 1 639 1 638 1
637 0 5 624 1 641 1 640 1 639 1 638 1
638 0 5 624 1 641 1 640 1 639 1 638 1
639 0 5 624 1 641 1 640 1 639 1 638 1
640 0 5 624 1 641 1 640 1 639 1 638 1
641 0 5 624 1 641 1 640 1 639 1 638 1
642 0 5 624 1 641 1 640 1 639 1 638 1
643 0 5 624 1 641 1 640 1 639 1 638 1
644 0 5 624 1 641 1 640 1 639 1 638 1
645 0 5 624 1 641 1 640 1 639 1 638 1
646 0 5 624 1 641 1 640 1 639 1 638 1
647 0 5 624 1 641 1 640 1 639 1 638 1
648 0 5 624 1 641 1 640 1 639 1 638 1
649 0 5 624 1 641 1 640 1 639 1 638 1
650 0 5 624 1 641 1 640 1 639 1 638 1
651 0 5 624 1 641 1 640 1 639 1 638 1
652 0 5 624 1 641 1 640 1 639 1 638 1
653 0 5 624 1 641 1 640 1 639 1 638 1
654 0 5 624 1 641 1 640 1 639 1 638 1
655 0 5 624 1 641 1 640 1 639 1 638 1
656 0 5 624 1 641 1 640 1 639 1 638 1
657 0 5 624 1 641 1 640 1 639 1 638 1
658 0 5 624 1 641 1 640 1 639 1 638 1
659 0 5 624 1 641 1 640 1 639 1 638 1
660 0 5 624 1 641 1 640 1 639 1 638 1
661 0 5 624 1 641 1 640 1 639 1 638 1
662 0 5 624 1 641 1 640 1 639 1 638 1
663 0 5 624 1 641 1 640 1 639 1 638 1
664 0 5 624 1 641 1 640 1 639 1 638 1
665 0 5 624 1 641 1 640 1 639 1 638 1
666 0 5 624 1 641 1 640 1 639 1 638 1
667 0 5 624 1 641 1 640 1 639 1 638 1
668 0 5 624 1 641 1 640 1 639 1 638 1
669 0 5 624 1 641 1 640 1 639 1 638 1
670 0 5 624 1 641 1 640 1 639 1 638 1
671 0 5 624 1 641 1 640 1 639 1 638 1
672 0 5 624 1 641 1 640 1 639 1 638 1
673 0 5 624 1 641 1 640 1 639 1 638 1
674 0 5 624 1 641 1 640 1 639 1 638 1
675 0 5 624 1 641 1 640 1 639 1 638 1
676 0 5 624 1 641 1 640 1 639 1 638 1
677 0 5 624 1 641 1 640 1 639 1 638 1
678 0 5 624 1 641 1 640 1 639 1 638 1
679 0 5 624 1 641 1 640 1 639 1 638 1
680 0 5 624 1 641 1 640 1 639 1 638 1
681 0 5 624 1 641 1 640 1 639 1 638 1
682 0 5 624 1 641 1 640 1 639 1 638 1
683 0 5 624 1 641 1 640 1 639 1 638 1
684 0 5 624 1 641 1 640 1 639 1 638 1
685 0 5 624 1 641 1 640 1 639 1 638 1
686 0 5 624 1 641 1 640 1 639 1 638 1
687 0 5 624 1 641 1 640 1 639 1 638 1
688 0 5 624 1 641 1 640 1 639 1 638 1
689 0 5 624 1 641 1 640 1 639 1 638 1
690 0 5 624 1 641 1 640 1 639 1 638 1
-1
EOF
